========================================================== 
File name: C:\DEGR\assets\definitions\MSRCPSP_Gen\100_20_64_5_C.def
Creation date: Wed May 03 10:38:44 CEST 2023
Website: http://imopse.ii.pwr.edu.pl/ 
Reference: 
Myszkowski P. B., Skowronski M. E., Olech L., Oslizlo K., 
Hybrid Ant Colony Optimization in solving Multi-Skill Resource-Constrained Project Scheduling Problem, 
Soft Computing, DOI: DOI 10.1007/s00500-014-1455-x 
========================================================== 
General characteristics: 
Tasks: 100
Resources: 20
Precedence relations: 62
Number of skill types: 5
========================================================== 
ResourceID 	 Salary 	 Skills 
1	 	 	66.8	 	 Q2: 3 	  Q1: 1 	  Q0: 1 	  Q3: 3 	 
2	 	 	45.0	 	 Q2: 3 	 
3	 	 	18.4	 	 Q3: 1 	  Q1: 3 	  Q4: 3 	 
4	 	 	17.0	 	 Q4: 1 	 
5	 	 	59.2	 	 Q2: 0 	  Q1: 3 	 
6	 	 	49.9	 	 Q0: 1 	  Q4: 0 	 
7	 	 	27.9	 	 Q4: 0 	 
8	 	 	91.1	 	 Q1: 3 	  Q2: 2 	 
9	 	 	54.2	 	 Q2: 2 	  Q1: 3 	 
10	 	 	45.1	 	 Q3: 3 	  Q1: 0 	  Q4: 3 	  Q0: 2 	 
11	 	 	96.8	 	 Q2: 1 	 
12	 	 	84.1	 	 Q3: 2 	  Q4: 0 	  Q0: 1 	  Q2: 1 	 
13	 	 	44.3	 	 Q3: 2 	  Q2: 0 	 
14	 	 	22.1	 	 Q1: 3 	  Q3: 0 	 
15	 	 	83.7	 	 Q4: 3 	  Q0: 2 	 
16	 	 	32.5	 	 Q2: 2 	  Q1: 1 	 
17	 	 	34.4	 	 Q0: 3 	  Q1: 0 	  Q2: 2 	  Q3: 2 	 
18	 	 	65.9	 	 Q0: 1 	  Q1: 2 	  Q4: 3 	 
19	 	 	42.6	 	 Q3: 2 	  Q1: 3 	  Q4: 3 	 
20	 	 	92.9	 	 Q3: 0 	  Q1: 2 	 
========================================================== 
TaskID 	 Duration 	 Skill 	 Predecessor IDs 
1	24	Q0:	2
2	38	Q3:	0
3	12	Q1:	0
4	36	Q1:	3
5	39	Q0:	3
6	9	Q2:	0
7	14	Q1:	1
8	30	Q3:	2
9	20	Q0:	1
10	30	Q3:	1	7
11	38	Q0:	3
12	36	Q3:	2
13	19	Q1:	1	6
14	25	Q1:	2
15	15	Q0:	3
16	15	Q0:	2
17	37	Q3:	3
18	12	Q1:	2	13
19	38	Q0:	1	16	2
20	24	Q4:	3	15
21	31	Q1:	0
22	30	Q0:	1	2
23	16	Q2:	0	17
24	38	Q0:	2
25	23	Q1:	1	11
26	21	Q2:	3	18
27	38	Q3:	0
28	36	Q1:	3
29	16	Q0:	1
30	28	Q2:	1
31	35	Q3:	3
32	12	Q1:	0
33	24	Q0:	2
34	10	Q1:	1	32
35	25	Q2:	0	3	12
36	25	Q0:	2	27
37	12	Q4:	1
38	10	Q3:	0
39	34	Q3:	2
40	23	Q2:	3
41	26	Q3:	2
42	13	Q2:	1
43	35	Q1:	1
44	12	Q1:	1
45	29	Q0:	1
46	14	Q3:	2
47	30	Q1:	3
48	36	Q1:	0
49	29	Q2:	2	36	23
50	16	Q1:	0
51	9	Q3:	1
52	15	Q1:	3
53	32	Q0:	3
54	19	Q3:	2
55	16	Q4:	0	15
56	12	Q4:	0	5	38
57	29	Q1:	1	34	1
58	19	Q1:	1
59	19	Q3:	2
60	24	Q2:	3
61	15	Q3:	0
62	36	Q1:	1	34	19
63	18	Q3:	3
64	33	Q1:	2	21
65	10	Q4:	1
66	9	Q4:	3	47
67	27	Q0:	2	32
68	24	Q0:	2
69	34	Q0:	3	34	29
70	36	Q4:	3
71	9	Q2:	1	63
72	20	Q3:	0	67	34
73	12	Q3:	1	58	23
74	36	Q1:	2	7
75	35	Q2:	2	24
76	16	Q1:	1	14
77	22	Q3:	0
78	16	Q1:	2	45	65
79	39	Q3:	3
80	9	Q1:	0	18
81	39	Q3:	0	7
82	21	Q2:	3	61	14
83	32	Q3:	0	41	60
84	40	Q1:	2
85	20	Q3:	0
86	37	Q3:	1
87	39	Q0:	3	23	20
88	38	Q2:	1	53	55
89	25	Q4:	1	68
90	35	Q3:	3	70
91	35	Q0:	2
92	26	Q1:	2	45
93	14	Q1:	0
94	20	Q1:	2
95	30	Q1:	3	38	87	2
96	13	Q0:	1	94
97	25	Q0:	3	85	90	71	31
98	28	Q0:	2	89
99	10	Q4:	3	87
100	33	Q2:	2	90
========================================================== 